
Gurobi 11.0.3 (linux64) logging started Thu Apr 16 11:51:32 2026

Set parameter LogFile to value "tree/results/ceva/ceva_depth-4_run-4/Full MIP/LogFile_FullModel.txt"
Gurobi Optimizer version 11.0.3 build v11.0.3rc0 (linux64 - "CentOS Linux 7 (Core)")

CPU model: Intel(R) Xeon(R) Platinum 8260 CPU @ 2.40GHz, instruction set [SSE2|AVX|AVX2|AVX512]
Thread count: 96 physical cores, 192 logical processors, using up to 32 threads

Optimize a model with 270645 rows, 166691 columns and 4330237 nonzeros
Model fingerprint: 0x8b66a6ed
Model has 20736 general constraints
Variable types: 104194 continuous, 62497 integer (62497 binary)
Coefficient statistics:
  Matrix range     [8e-04, 1e+04]
  Objective range  [8e-04, 1e+04]
  Bounds range     [1e+00, 1e+03]
  RHS range        [1e-04, 1e+03]

User MIP start produced solution with objective -414399 (1.79s)
Loaded user MIP start with objective -414399
Processed MIP start in 2.05 seconds (0.35 work units)

Presolve removed 82960 rows and 82944 columns (presolve time = 5s) ...
Presolve added 20720 rows and 82944 columns
Presolve time: 6.97s
Presolved: 291365 rows, 249635 columns, 4496313 nonzeros
Presolved model has 82944 SOS constraint(s)
Variable types: 104194 continuous, 145441 integer (145441 binary)

Deterministic concurrent LP optimizer: primal simplex, dual simplex, and barrier
Showing barrier log only...

Root relaxation presolved: 291365 rows, 249635 columns, 4496313 nonzeros

Root barrier log...

Ordering time: 0.19s

Barrier statistics:
 Dense cols : 240
 AA' NZ     : 4.602e+06
 Factor NZ  : 1.830e+07 (roughly 400 MB of memory)
 Factor Ops : 1.242e+09 (less than 1 second per iteration)
 Threads    : 30

                  Objective                Residual
Iter       Primal          Dual         Primal    Dual     Compl     Time
   0  -2.52393477e+05  2.00509195e+09  1.50e+04 1.97e-14  7.72e+05    16s
   1  -2.15252931e+05  3.39765875e+09  6.40e+03 2.57e+01  2.92e+05    17s
   2  -1.37802278e+05  3.48115914e+09  8.02e+02 5.42e+00  4.10e+04    18s
   3  -1.56817744e+04  2.63005809e+09  7.85e+01 1.86e+00  8.26e+03    20s
   4  -1.67859852e+03  4.66649491e+08  6.62e+00 1.84e-01  1.02e+03    21s
   5  -1.66968085e+02  5.49271523e+07  3.25e-01 1.84e-02  1.11e+02    22s
   6  -1.57930926e+01  5.78237648e+06  3.29e-02 1.84e-03  1.12e+01    23s
   7  -6.75457647e-01  5.91705155e+05  3.73e-03 1.88e-04  1.14e+00    24s
   8   8.36522843e-01  7.05690837e+04  8.38e-04 2.24e-05  1.36e-01    25s
   9   9.63764979e-01  7.15288388e+03  8.30e-05 2.25e-06  1.38e-02    26s
  10   9.96317761e-01  7.18431236e+02  8.23e-06 2.26e-07  1.38e-03    27s
  11   9.99631652e-01  7.33972358e+01  8.15e-07 2.26e-08  1.40e-04    28s
  12   9.99963165e-01  8.23974148e+00  8.15e-08 2.26e-09  1.40e-05    29s
  13   9.99996316e-01  1.73057475e+00  8.08e-09 2.26e-10  1.41e-06    30s
  14   9.99999632e-01  1.07305747e+00  8.08e-10 2.26e-11  1.41e-07    32s
  15   9.99999963e-01  1.00737235e+00  8.03e-11 2.26e-12  1.42e-08    33s
  16   9.99999996e-01  1.00073724e+00  8.24e-12 2.26e-13  1.42e-09    35s
  17   1.00000000e+00  1.00007372e+00  1.11e-12 2.26e-14  1.42e-10    36s
  18   1.00000000e+00  1.00000737e+00  4.55e-13 1.42e-14  1.42e-11    38s
  19   1.00000000e+00  1.00000074e+00  4.26e-13 2.26e-16  1.42e-12    39s
  20   1.00000000e+00  1.00000007e+00  4.41e-13 2.27e-17  1.42e-13    41s
  21   1.00000000e+00  1.00000001e+00  4.26e-13 2.27e-18  1.42e-14    42s

Barrier solved model in 21 iterations and 41.75 seconds (23.19 work units)
Optimal objective 1.00000000e+00


Root crossover log...

   12075 DPushes remaining with DInf 0.0000000e+00                42s
       0 DPushes remaining with DInf 0.0000000e+00                42s

   98830 PPushes remaining with PInf 0.0000000e+00                43s
      79 PPushes remaining with PInf 0.0000000e+00                46s
       0 PPushes remaining with PInf 0.0000000e+00                48s

  Push phase complete: Pinf 0.0000000e+00, Dinf 0.0000000e+00     48s


Root simplex log...

Iteration    Objective       Primal Inf.    Dual Inf.      Time
   98834    1.0000000e+00   0.000000e+00   0.000000e+00     49s
   98834    1.0000000e+00   0.000000e+00   0.000000e+00     50s
Concurrent spin time: 4.08s

Solved with barrier

Root relaxation: objective 1.000000e+00, 98834 iterations, 42.91 seconds (19.66 work units)
Total elapsed time = 176.58s (DegenMoves)

    Nodes    |    Current Node    |     Objective Bounds      |     Work
 Expl Unexpl |  Obj  Depth IntInf | Incumbent    BestBd   Gap | It/Node Time

     0     0    1.00000    0 19108 -414399.19    1.00000   100%     -  178s
H    0     2                    -414399.1928    1.00000   100%     - 2348s
     0     2    1.00000    0 19108 -414399.19    1.00000   100%     - 2348s
     1     4    1.00000    1 16880 -414399.19    1.00000   100% 18410 2853s
     3     8    1.00000    2 16880 -414399.19    1.00000   100% 11920 3600s

Explored 7 nodes (136973 simplex iterations) in 3600.44 seconds (4806.89 work units)
Thread count was 32 (of 192 available processors)

Solution count 2: -414399 -414399 

Time limit reached
Best objective -4.143991928351e+05, best bound 1.000000000000e+00, gap 100.0002%

User-callback calls 787729, time in user-callback 4.83 sec
